h -19 2 0
h -19 -14 0
h 16 -4 0
1 5 0
h 29 2 0
h -2 -1 0
h -7 2 0
h 2 -20 0
h -4 -16 0
h 16 -30 0
h -7 -13 0
h -5 2 -16 0
h 5 -2 17 0
h 5 7 0
h -10 11 0
h 7 30 0
h -29 17 0
h -18 -7 0
1 -7 0
h 18 25 13 0
h -7 -11 0
h 7 20 0
h -2 -5 0
h 19 16 0
h 14 5 0
h 4 16 0
h -12 -10 0
h -17 7 0
h 12 2 0
